
******************************************************************************
This program contains Ipopt, a library for large-scale nonlinear optimization.
 Ipopt is released as open source code under the Eclipse Public License (EPL).
         For more information visit http://projects.coin-or.org/Ipopt
******************************************************************************

This is Ipopt version 3.12.6, running with linear solver ma57.

Number of nonzeros in equality constraint Jacobian...:     1050
Number of nonzeros in inequality constraint Jacobian.:      222
Number of nonzeros in Lagrangian Hessian.............:     1049

Reallocating memory for MA57: lfact (12436)
Total number of variables............................:      427
                     variables with only lower bounds:        0
                variables with lower and upper bounds:      206
                     variables with only upper bounds:        1
Total number of equality constraints.................:      394
Total number of inequality constraints...............:      127
        inequality constraints with only lower bounds:        0
   inequality constraints with lower and upper bounds:        0
        inequality constraints with only upper bounds:      127

iter    objective    inf_pr   inf_du lg(mu)  ||d||  lg(rg) alpha_du alpha_pr  ls
   0  2.1434684e+05 3.05e+03 2.41e+01  -1.0 0.00e+00    -  0.00e+00 0.00e+00   0
   1  2.1456631e+05 3.04e+03 2.41e+01  -1.0 3.58e+03    -  4.09e-04 1.11e-03h  1
   2  2.1686828e+05 3.04e+03 2.41e+01  -1.0 3.53e+03    -  3.76e-05 1.09e-03h  1
   3  2.1820729e+05 3.04e+03 2.41e+01  -1.0 3.06e+03    -  1.58e-04 2.36e-04h  1
   4  2.2148577e+05 3.04e+03 2.41e+01  -1.0 3.38e+03    -  3.76e-04 5.44e-04h  1
   5  2.2496119e+05 3.03e+03 2.41e+01  -1.0 3.18e+03    -  1.11e-04 4.60e-04h  1
   6  2.2947773e+05 3.03e+03 2.40e+01  -1.0 3.51e+03    -  2.52e-04 4.77e-04h  1
   7  2.3862969e+05 3.03e+03 2.40e+01  -1.0 3.51e+03    -  6.00e-04 9.52e-04h  1
   8  2.5335626e+05 3.03e+03 2.40e+01  -1.0 3.43e+03    -  8.68e-04 1.49e-03h  1
   9  2.6992869e+05 3.02e+03 2.40e+01  -1.0 3.27e+03    -  6.59e-04 1.60e-03h  1
iter    objective    inf_pr   inf_du lg(mu)  ||d||  lg(rg) alpha_du alpha_pr  ls
  10  2.8178524e+05 3.02e+03 2.39e+01  -1.0 6.89e+03    -  4.18e-03 1.18e-03h  1
  11  3.2741700e+05 3.00e+03 2.38e+01  -1.0 7.47e+03    -  3.69e-03 4.83e-03h  1
  12  3.5640174e+05 2.99e+03 2.37e+01  -1.0 6.91e+03    -  8.54e-03 3.55e-03h  1
  13  4.1036898e+05 2.97e+03 2.35e+01  -1.0 6.10e+03    -  7.00e-03 8.71e-03h  1
  14  4.9287863e+05 2.91e+03 2.31e+01  -1.0 5.24e+03    -  1.02e-02 1.87e-02h  1
  15  5.2352254e+05 2.88e+03 2.28e+01  -1.0 3.48e+03    -  1.28e-02 1.14e-02h  1
  16  5.2963088e+05 2.87e+03 2.28e+01  -1.0 4.34e+03    -  6.19e-03 1.08e-03h  1
  17  5.7512378e+05 2.85e+03 2.26e+01  -1.0 4.23e+03    -  5.91e-05 8.02e-03h  1
  18  6.1324809e+05 2.83e+03 2.24e+01  -1.0 3.39e+03  -2.0 5.05e-04 7.24e-03h  1
  19  6.3170621e+05 2.82e+03 2.22e+01  -1.0 7.61e+03  -2.5 1.23e-02 5.06e-03h  1
iter    objective    inf_pr   inf_du lg(mu)  ||d||  lg(rg) alpha_du alpha_pr  ls
  20  6.4052497e+05 2.81e+03 2.22e+01  -1.0 4.26e+03    -  5.67e-03 2.49e-03h  1
  21  6.4073061e+05 2.81e+03 2.22e+01  -1.0 2.63e+03    -  5.09e-05 5.07e-05h  1
  22  6.6134205e+05 2.79e+03 2.20e+01  -1.0 4.05e+03    -  1.80e-05 8.21e-03h  1
  23  6.6143377e+05 2.79e+03 2.20e+01  -1.0 5.67e+03  -3.0 1.85e-03 6.13e-05h  1
  24  6.6244958e+05 2.78e+03 2.20e+01  -1.0 1.37e+04  -3.4 6.34e-04 5.87e-04h  1
  25  6.6521049e+05 2.78e+03 2.19e+01  -1.0 1.27e+04    -  5.06e-03 1.67e-03h  1
  26  6.9010262e+05 2.75e+03 2.17e+01  -1.0 4.72e+03    -  2.16e-02 1.22e-02h  1
  27  7.3928597e+05 2.66e+03 2.13e+01  -1.0 5.20e+03    -  4.89e-03 3.22e-02h  1
  28  7.3988407e+05 2.66e+03 2.09e+01  -1.0 1.88e+03  -2.1 2.72e-02 4.49e-04h  1
  29  7.4058434e+05 2.65e+03 2.09e+01  -1.0 4.63e+03    -  3.54e-03 5.94e-04h  1
iter    objective    inf_pr   inf_du lg(mu)  ||d||  lg(rg) alpha_du alpha_pr  ls
  30  7.4829110e+05 2.64e+03 2.07e+01  -1.0 5.37e+03    -  2.65e-05 6.36e-03h  1
  31  7.5246920e+05 2.63e+03 2.07e+01  -1.0 1.83e+03  -1.7 6.29e-04 2.29e-03h  1
  32r 7.5246920e+05 2.63e+03 9.99e+02   3.4 0.00e+00  -2.2 0.00e+00 3.07e-07R  6
  33r 8.7464923e+05 2.62e+03 9.99e+02   3.4 1.53e+06    -  1.16e-04 1.28e-04f  1
  34r 7.9955069e+05 2.30e+03 9.95e+02   2.0 3.12e+05    -  3.17e-03 3.83e-03f  1
  35  8.4536356e+05 2.25e+03 1.02e+02  -1.0 1.82e+03  -1.7 4.91e-03 2.08e-02h  1
  36  8.7550770e+05 2.23e+03 1.01e+02  -1.0 1.63e+03  -1.3 1.37e-02 1.16e-02h  1
  37  9.0101535e+05 2.19e+03 9.96e+01  -1.0 1.97e+03  -1.8 7.21e-03 1.51e-02h  1
  38  9.0445369e+05 2.19e+03 9.94e+01  -1.0 1.60e+03  -1.4 1.21e-03 1.85e-03h  1
  39  9.1098064e+05 2.17e+03 9.85e+01  -1.0 1.64e+03  -1.8 1.27e-03 9.59e-03h  1
iter    objective    inf_pr   inf_du lg(mu)  ||d||  lg(rg) alpha_du alpha_pr  ls
  40  9.2241820e+05 2.15e+03 9.76e+01  -1.0 1.59e+03  -1.4 2.86e-03 8.81e-03h  1
  41  9.2245458e+05 2.15e+03 9.75e+01  -1.0 1.62e+03  -1.9 1.50e-01 1.03e-04h  1
  42  9.4679269e+05 2.10e+03 9.52e+01  -1.0 1.53e+03  -1.5 2.91e-02 2.23e-02h  1
  43  9.4762166e+05 2.09e+03 9.47e+01  -1.0 1.71e+03  -1.9 2.42e-02 4.63e-03h  1
  44  9.6414279e+05 2.05e+03 2.74e+02  -1.0 1.50e+03  -1.5 1.84e-01 2.10e-02h  1
  45  9.6258515e+05 2.05e+03 2.74e+02  -1.0 5.86e+03    -  6.37e-04 3.83e-04f  1
  46  9.6258415e+05 2.05e+03 1.10e+03  -1.0 1.68e+03  -2.0 1.13e-01 1.80e-04h  1
  47  8.8505855e+05 2.00e+03 2.76e+02  -1.0 5.70e+03    -  4.97e-03 2.19e-02f  1
  48  8.8381366e+05 2.00e+03 9.96e+02  -1.0 7.67e+03    -  2.75e-05 2.43e-04f  1
  49r 8.8381366e+05 2.00e+03 1.00e+03   3.3 0.00e+00  -1.6 0.00e+00 3.22e-07R  4
iter    objective    inf_pr   inf_du lg(mu)  ||d||  lg(rg) alpha_du alpha_pr  ls
  50r 9.7499336e+05 1.94e+03 9.98e+02   3.3 2.20e+05    -  4.50e-03 8.93e-04f  1
  51r 6.9201053e+05 1.53e+03 9.89e+02   1.9 6.63e+04    -  8.16e-03 8.82e-03f  1
  52  6.9339309e+05 1.52e+03 1.00e+02  -1.0 1.38e+03  -2.0 1.42e-04 3.86e-03h  1
  53  6.8922892e+05 1.51e+03 9.97e+01  -1.0 1.99e+03  -2.5 4.57e-03 4.55e-03f  1
  54  6.7940666e+05 1.50e+03 9.91e+01  -1.0 1.97e+03    -  9.75e-03 6.14e-03f  1
  55  6.7288703e+05 1.50e+03 9.86e+01  -1.0 1.72e+03    -  9.64e-04 4.76e-03f  1
  56  6.5274050e+05 1.47e+03 9.72e+01  -1.0 1.75e+03    -  8.86e-03 1.45e-02f  1
  57  6.3447701e+05 1.46e+03 9.60e+01  -1.0 1.87e+03    -  4.22e-02 1.26e-02f  1
  58  5.9364208e+05 1.42e+03 9.34e+01  -1.0 2.09e+03    -  8.53e-02 2.64e-02f  1
  59  4.8503607e+05 1.32e+03 8.70e+01  -1.0 2.28e+03    -  1.15e-01 7.08e-02f  1
iter    objective    inf_pr   inf_du lg(mu)  ||d||  lg(rg) alpha_du alpha_pr  ls
  60  4.1255965e+05 1.21e+03 8.01e+01  -1.0 2.03e+03    -  4.13e-02 8.26e-02f  1
  61  4.1089946e+05 1.19e+03 7.90e+01  -1.0 1.45e+03    -  8.48e-04 1.36e-02f  1
  62  4.1001336e+05 1.18e+03 7.81e+01  -1.0 1.42e+03    -  2.49e-02 1.23e-02f  1
  63  4.0802966e+05 1.07e+03 7.08e+01  -1.0 1.40e+03    -  3.55e-02 9.38e-02f  1
  64  4.1149335e+05 1.03e+03 6.81e+01  -1.0 1.25e+03    -  1.08e-02 3.77e-02h  1
  65  4.2763326e+05 8.92e+02 5.93e+01  -1.0 1.17e+03    -  3.32e-02 1.31e-01h  1
  66  4.3111001e+05 8.66e+02 5.75e+01  -1.0 1.26e+03    -  6.47e-04 2.95e-02h  1
  67  4.3195729e+05 8.49e+02 5.64e+01  -1.0 1.56e+03    -  7.00e-02 1.91e-02h  1
  68  4.3522099e+05 7.84e+02 5.20e+01  -1.0 1.26e+03    -  1.09e-02 7.76e-02h  1
  69  4.3415029e+05 7.46e+02 4.95e+01  -1.0 2.09e+03    -  1.98e-03 4.74e-02f  1
iter    objective    inf_pr   inf_du lg(mu)  ||d||  lg(rg) alpha_du alpha_pr  ls
  70  4.3003211e+05 7.28e+02 4.83e+01  -1.0 3.38e+03    -  1.95e-02 2.47e-02f  1
  71  4.3016893e+05 7.28e+02 4.99e+01  -1.0 1.26e+03    -  3.28e-03 2.55e-04h  1
  72  4.3902251e+05 7.17e+02 4.76e+01  -1.0 1.15e+03    -  8.59e-05 1.43e-02h  1
  73  4.4906816e+05 7.10e+02 4.72e+01  -1.0 7.18e+02    -  1.38e-01 1.08e-02h  1
  74  4.5612015e+05 7.05e+02 4.69e+01  -1.0 7.35e+02    -  1.30e-02 6.83e-03h  1
  75  4.5620781e+05 7.05e+02 4.69e+01  -1.0 6.38e+02    -  6.76e-05 8.42e-05h  1
  76  5.1683497e+05 6.75e+02 4.49e+01  -1.0 1.00e+03    -  4.69e-05 4.25e-02h  1
  77  5.1733415e+05 6.74e+02 4.49e+01  -1.0 1.19e+03    -  7.77e-02 3.48e-04h  1
  78  5.9547768e+05 6.39e+02 4.25e+01  -1.0 1.20e+03    -  1.92e-03 5.26e-02h  1
  79  6.2470358e+05 6.26e+02 4.17e+01  -1.0 1.09e+03    -  7.79e-02 1.99e-02h  1
iter    objective    inf_pr   inf_du lg(mu)  ||d||  lg(rg) alpha_du alpha_pr  ls
  80  6.2773390e+05 6.25e+02 4.16e+01  -1.0 1.09e+03    -  8.50e-04 2.05e-03h  1
  81  7.3642804e+05 5.77e+02 4.05e+01  -1.0 1.10e+03    -  1.15e-04 7.70e-02h  1
  82  7.3880840e+05 5.75e+02 3.92e+01  -1.0 2.25e+03    -  1.14e-02 3.34e-03h  1
  83  7.3803443e+05 5.65e+02 3.85e+01  -1.0 4.65e+03    -  7.48e-04 1.76e-02h  1
  84  7.3487185e+05 5.58e+02 5.00e+01  -1.0 5.14e+03    -  2.26e-03 1.29e-02f  1
  85  7.3540826e+05 5.56e+02 5.05e+01  -1.0 3.35e+03    -  2.02e-03 3.04e-03h  1
  86  7.3839448e+05 5.54e+02 3.78e+01  -1.0 1.27e+03    -  7.54e-02 3.76e-03h  1
  87  7.5573488e+05 5.46e+02 3.96e+01  -1.0 1.23e+03    -  5.18e-02 1.48e-02h  1
  88  8.1286208e+05 5.28e+02 1.14e+02  -1.0 3.45e+03    -  2.38e-03 3.17e-02h  1
  89  8.1316247e+05 5.28e+02 1.14e+02  -1.0 9.95e+02    -  4.80e-02 3.12e-04h  1
iter    objective    inf_pr   inf_du lg(mu)  ||d||  lg(rg) alpha_du alpha_pr  ls
  90r 8.1316247e+05 5.28e+02 9.99e+02   2.7 0.00e+00    -  0.00e+00 2.77e-07R  6
  91r 8.1291670e+05 5.28e+02 9.99e+02   2.7 7.17e+04    -  2.65e-04 9.67e-06f  1
  92r 7.2105574e+05 4.42e+02 9.95e+02   1.3 6.89e+04    -  2.59e-03 3.56e-03f  1
  93  7.2117135e+05 4.42e+02 1.93e+02  -1.0 1.10e+03    -  2.09e-03 1.31e-04h  1
  94  7.2188100e+05 4.42e+02 1.93e+02  -1.0 1.10e+03    -  5.69e-06 5.30e-04h  1
  95  7.4831464e+05 4.34e+02 1.89e+02  -1.0 1.10e+03    -  4.97e-04 1.91e-02h  1
  96  8.7901827e+05 3.95e+02 1.72e+02  -1.0 1.09e+03    -  8.64e-02 8.86e-02h  1
  97  1.0650717e+06 3.51e+02 1.53e+02  -1.0 1.01e+03    -  1.40e-01 1.11e-01h  1
  98  1.5981664e+06 2.50e+02 1.10e+02  -1.0 9.28e+02    -  1.87e-01 2.88e-01h  1
  99  2.1671963e+06 1.69e+02 9.17e+01  -1.0 6.63e+02    -  4.62e-03 3.26e-01h  1
iter    objective    inf_pr   inf_du lg(mu)  ||d||  lg(rg) alpha_du alpha_pr  ls
 100  2.1753052e+06 1.68e+02 8.31e+01  -1.0 3.85e+02    -  3.11e-02 5.79e-03h  1
 101  2.1854905e+06 1.67e+02 8.42e+01  -1.0 9.07e+02    -  3.42e-03 7.35e-03h  1
 102  2.2037356e+06 1.64e+02 7.98e+01  -1.0 9.27e+02    -  2.02e-02 1.31e-02h  1
 103  2.2208707e+06 1.62e+02 7.46e+01  -1.0 9.60e+02    -  2.06e-02 1.24e-02h  1
 104  2.2295455e+06 1.61e+02 7.58e+01  -1.0 9.68e+02    -  3.28e-03 6.29e-03h  1
 105  2.2307069e+06 1.61e+02 7.57e+01  -1.0 8.01e+02    -  9.37e-04 8.30e-04h  1
 106  2.2928449e+06 1.54e+02 7.00e+01  -1.0 7.95e+02    -  5.20e-02 4.34e-02h  1
 107  2.3208269e+06 1.51e+02 6.67e+01  -1.0 7.60e+02    -  4.31e-02 1.95e-02h  1
 108  2.4561618e+06 1.37e+02 7.71e+01  -1.0 7.43e+02    -  1.39e-02 9.05e-02h  1
 109  2.4577720e+06 1.37e+02 7.64e+01  -1.0 6.02e+02    -  2.75e-03 1.10e-03h  1
iter    objective    inf_pr   inf_du lg(mu)  ||d||  lg(rg) alpha_du alpha_pr  ls
 110  2.4584640e+06 1.37e+02 7.08e+01  -1.0 1.30e+03    -  9.25e-03 4.63e-04h  1
 111  2.4758250e+06 1.36e+02 7.65e+01  -1.0 1.31e+03    -  1.20e-03 1.14e-02h  1
 112  2.7098885e+06 1.16e+02 1.60e+02  -1.0 4.40e+02    -  2.14e-04 1.47e-01h  1
 113  2.7239048e+06 1.15e+02 2.27e+02  -1.0 6.22e+02    -  1.17e-01 9.26e-03h  1
 114  2.8092703e+06 1.08e+02 2.09e+02  -1.0 6.93e+02    -  4.85e-02 5.51e-02h  1
 115  3.0956302e+06 8.94e+01 2.11e+02  -1.0 6.93e+02    -  2.22e-01 1.75e-01h  1
 116  3.3836145e+06 7.40e+01 1.38e+02  -1.0 6.67e+02    -  2.31e-03 1.72e-01h  1
 117  3.3894152e+06 7.37e+01 1.40e+02  -1.0 3.77e+02    -  1.61e-03 3.66e-03h  1
 118  3.3925368e+06 7.36e+01 1.11e+02  -1.0 5.03e+02    -  2.16e-02 1.94e-03h  1
 119  3.7925560e+06 5.63e+01 4.11e+02  -1.0 4.46e+02    -  3.73e-04 2.35e-01h  1
iter    objective    inf_pr   inf_du lg(mu)  ||d||  lg(rg) alpha_du alpha_pr  ls
 120  3.7959847e+06 5.62e+01 3.25e+02  -1.0 4.42e+02    -  4.02e-02 2.13e-03h  1
 121  3.7964611e+06 5.62e+01 3.24e+02  -1.0 5.50e+02    -  8.79e-04 3.03e-04h  1
 122  3.8729393e+06 5.35e+01 4.01e+02  -1.0 5.69e+02    -  5.10e-03 4.86e-02h  1
 123  3.8805416e+06 5.32e+01 3.31e+02  -1.0 6.07e+02    -  2.67e-01 4.77e-03h  1
 124  4.3595659e+06 3.84e+01 2.47e+02  -1.0 6.19e+02    -  5.69e-02 2.79e-01h  1
 125  5.3026441e+06 1.50e+01 5.39e+02  -1.0 2.82e+02    -  1.71e-02 7.95e-01h  1
 126  5.3319231e+06 1.84e+01 3.26e+02  -1.0 1.45e+02    -  8.78e-01 9.75e-02h  1
 127  5.3350997e+06 1.83e+01 7.18e+02  -1.0 1.10e+02    -  8.61e-01 1.04e-02h  1
 128  5.5028904e+06 8.76e+00 4.30e+02  -1.0 1.86e+02    -  9.99e-01 5.20e-01h  1
 129  5.6050981e+06 4.04e+00 2.79e+02  -1.0 1.06e+02    -  1.00e+00 5.38e-01h  1
iter    objective    inf_pr   inf_du lg(mu)  ||d||  lg(rg) alpha_du alpha_pr  ls
 130  5.6061797e+06 4.00e+00 1.02e+03  -1.0 5.34e+01    -  1.00e+00 1.11e-02h  1
 131  5.6061949e+06 4.00e+00 1.09e+03  -1.0 5.18e+01    -  1.48e-02 1.61e-04h  1
 132  5.6067101e+06 3.98e+00 1.03e+03  -1.0 4.79e+01    -  3.58e-05 3.88e-03h  1
 133  5.6148961e+06 3.75e+00 9.24e+02  -1.0 4.87e+01    -  5.05e-03 5.85e-02h  1
 134  5.6149784e+06 3.75e+00 1.48e+03  -1.0 4.60e+01    -  6.20e-01 6.24e-04h  1
 135  5.6149821e+06 3.75e+00 1.51e+03  -1.0 8.46e+02    -  7.70e-05 6.10e-05h  1
 136  5.6167464e+06 3.72e+00 1.56e+03  -1.0 9.74e+01    -  2.96e-05 7.99e-03h  1
 137  5.8256854e+06 3.22e+00 5.89e+02  -1.0 9.77e+01    -  1.05e-02 8.99e-01h  1
 138  5.8356647e+06 2.26e+00 6.17e+03  -1.0 1.86e+01    -  1.00e+00 2.99e-01h  1
Reallocating memory for MA57: lfact (13309)
 139  5.8522303e+06 6.84e-01 5.09e+03  -1.0 1.31e+01    -  1.00e+00 7.01e-01h  1
iter    objective    inf_pr   inf_du lg(mu)  ||d||  lg(rg) alpha_du alpha_pr  ls
 140  5.8561074e+06 3.16e-01 2.01e+04  -1.0 4.03e+00    -  1.00e+00 5.39e-01h  1
 141  5.8580984e+06 1.27e-01 4.11e+04  -1.0 1.87e+00    -  1.00e+00 5.99e-01h  1
 142  5.8588824e+06 5.21e-02 1.00e+05  -1.0 7.49e-01    -  1.00e+00 5.88e-01h  1
 143  5.8592124e+06 2.08e-02 2.26e+05  -1.0 3.09e-01    -  1.00e+00 6.01e-01h  1
 144  5.8593482e+06 7.94e-03 4.82e+05  -1.0 1.23e-01    -  1.00e+00 6.19e-01h  1
 145  5.8594042e+06 2.62e-03 8.33e+05  -1.0 4.70e-02    -  1.00e+00 6.70e-01h  1
 146  5.8594048e+06 2.56e-03 3.81e+06  -1.0 1.55e-02    -  1.00e+00 2.51e-02h  6
 147  5.8594318e+06 1.94e-08 1.00e-06  -1.0 1.51e-02    -  1.00e+00 1.00e+00h  1
Reallocating memory for MA57: lfact (37710)
Reallocating memory for MA57: lfact (55811)
Reallocating memory for MA57: lfact (58964)
Reallocating memory for MA57: lfact (67897)
Reallocating memory for MA57: lfact (111230)
Reallocating memory for MA57: lfact (116950)
WARNING: Problem in step computation; switching to emergency mode.
 148r 5.8594318e+06 1.94e-08 1.00e+03  -5.7 0.00e+00  19.3 0.00e+00 0.00e+00R  1
 149r 5.8594318e+06 1.49e-08 1.47e+01  -5.7 4.24e-06    -  9.90e-01 2.21e-02f  1
iter    objective    inf_pr   inf_du lg(mu)  ||d||  lg(rg) alpha_du alpha_pr  ls
 150  5.8594244e+06 1.70e-08 3.76e+02  -5.7 1.71e+01    -  2.72e-03 1.83e-04f  1
 151  5.8594020e+06 3.29e-08 5.39e+03  -5.7 3.21e+00    -  9.69e-01 3.02e-03f  1
 152  5.8593949e+06 1.05e-08 1.72e+03  -5.7 6.19e-03    -  1.00e+00 6.91e-01f  1
 153  5.8593931e+06 3.03e-09 4.96e+02  -5.7 1.49e-03    -  1.00e+00 7.12e-01f  1
 154  5.8593926e+06 8.37e-10 1.72e+02  -5.7 4.03e-04    -  1.00e+00 7.24e-01f  1
 155  5.8593925e+06 1.37e-10 1.05e+02  -5.7 1.04e-04    -  1.00e+00 8.36e-01f  1
 156  5.8593925e+06 1.93e-11 1.65e+01  -5.7 1.70e-05    -  1.00e+00 8.58e-01f  1
 157  5.8593925e+06 3.41e-13 2.78e-10  -5.7 2.41e-06    -  1.00e+00 1.00e+00f  1
WARNING: Problem in step computation; switching to emergency mode.
Restoration phase is called at point that is almost feasible,
  with constraint violation 2.928600e-11. Abort.

Number of Iterations....: 157

                                   (scaled)                 (unscaled)
Objective...............:   4.2396999954970664e+05    5.8593924781044107e+06
Dual infeasibility......:   2.7830739587526847e-10    3.8462916331918162e-09
Constraint violation....:   3.4106051316484809e-13    3.4106051316484809e-13
Complementarity.........:   3.0080272992053507e-06    4.1571838926377056e-05
Overall NLP error.......:   3.0080272992053507e-06    4.1571838926377056e-05


Number of objective function evaluations             = 179
Number of objective gradient evaluations             = 154
Number of equality constraint evaluations            = 179
Number of inequality constraint evaluations          = 179
Number of equality constraint Jacobian evaluations   = 161
Number of inequality constraint Jacobian evaluations = 161
Number of Lagrangian Hessian evaluations             = 158
Total CPU secs in IPOPT (w/o function evaluations)   =      0.193
Total CPU secs in NLP function evaluations           =      0.050

EXIT: Restoration Failed!
Note: The following floating-point exceptions are signalling: IEEE_INVALID_FLAG IEEE_DIVIDE_BY_ZERO IEEE_UNDERFLOW_FLAG IEEE_DENORMAL

************************ CUTEst statistics ************************


 Package used            :  IPOPT
 Problem                 :  NET3      
 # variables             =             464
 # constraints           =             521
 # objective functions   =        0.3340000E+03
 # objective gradients   =        0.1550000E+03
 # objective Hessians    =        0.1550000E+03
 # Hessian-vector prdct  =        0.0000000E+00
 # constraints functions =        0.3420000E+03
 # constraints gradients =        0.1630000E+03
 # constraints Hessians  =        0.1550000E+03
 Exit code               =              -2
 Final f                 =   0.5859392E+07
 Set up time             =            0.01 seconds
 Solve time              =            0.48 seconds


******************************************************************

System Time =       0.2259999961 s.
